p cnf 249 815
6 0
11 0
16 0
21 0
12 0
17 0
22 0
18 0
23 0
24 0
-6 -12 11 0
-6 -17 16 0
-6 -22 21 0
-11 -8 6 0
-11 -18 16 0
-11 -23 21 0
-16 -9 6 0
-16 -14 11 0
-16 -24 21 0
-21 -10 6 0
-21 -15 11 0
-21 -20 16 0
-2 -11 12 0
-2 -16 17 0
-2 -21 22 0
-12 -3 2 0
-12 -18 17 0
-12 -23 22 0
-17 -4 2 0
-17 -14 12 0
-17 -24 22 0
-22 -5 2 0
-22 -15 12 0
-22 -20 17 0
-3 -6 8 0
-3 -16 18 0
-3 -21 23 0
-8 -2 3 0
-8 -17 18 0
-8 -22 23 0
-18 -4 3 0
-18 -9 8 0
-18 -24 23 0
-23 -5 3 0
-23 -10 8 0
-23 -20 18 0
-4 -6 9 0
-4 -11 14 0
-4 -21 24 0
-9 -2 4 0
-9 -12 14 0
-9 -22 24 0
-14 -3 4 0
-14 -8 9 0
-14 -23 24 0
-24 -5 4 0
-24 -10 9 0
-24 -15 14 0
-5 -6 10 0
-5 -11 15 0
-5 -16 20 0
-10 -2 5 0
-10 -12 15 0
-10 -17 20 0
-15 -3 5 0
-15 -8 10 0
-15 -18 20 0
-20 -4 5 0
-20 -9 10 0
-20 -14 15 0
-31 -37 36 0
-31 -42 41 0
-31 -47 46 0
-36 -33 31 0
-36 -43 41 0
-36 -48 46 0
-41 -34 31 0
-41 -39 36 0
-41 -49 46 0
-46 -35 31 0
-46 -40 36 0
-46 -45 41 0
-27 -36 37 0
-27 -41 42 0
-27 -46 47 0
-37 -28 27 0
-37 -43 42 0
-37 -48 47 0
-42 -29 27 0
-42 -39 37 0
-42 -49 47 0
-47 -30 27 0
-47 -40 37 0
-47 -45 42 0
-28 -31 33 0
-28 -41 43 0
-28 -46 48 0
-33 -27 28 0
-33 -42 43 0
-33 -47 48 0
-43 -29 28 0
-43 -34 33 0
-43 -49 48 0
-48 -30 28 0
-48 -35 33 0
-48 -45 43 0
-29 -31 34 0
-29 -36 39 0
-29 -46 49 0
-34 -27 29 0
-34 -37 39 0
-34 -47 49 0
-39 -28 29 0
-39 -33 34 0
-39 -48 49 0
-49 -30 29 0
-49 -35 34 0
-49 -40 39 0
-30 -31 35 0
-30 -36 40 0
-30 -41 45 0
-35 -27 30 0
-35 -37 40 0
-35 -42 45 0
-40 -28 30 0
-40 -33 35 0
-40 -43 45 0
-45 -29 30 0
-45 -34 35 0
-45 -39 40 0
-56 -62 61 0
-56 -67 66 0
-56 -72 71 0
-61 -58 56 0
-61 -68 66 0
-61 -73 71 0
-66 -59 56 0
-66 -64 61 0
-66 -74 71 0
-71 -60 56 0
-71 -65 61 0
-71 -70 66 0
-52 -61 62 0
-52 -66 67 0
-52 -71 72 0
-62 -53 52 0
-62 -68 67 0
-62 -73 72 0
-67 -54 52 0
-67 -64 62 0
-67 -74 72 0
-72 -55 52 0
-72 -65 62 0
-72 -70 67 0
-53 -56 58 0
-53 -66 68 0
-53 -71 73 0
-58 -52 53 0
-58 -67 68 0
-58 -72 73 0
-68 -54 53 0
-68 -59 58 0
-68 -74 73 0
-73 -55 53 0
-73 -60 58 0
-73 -70 68 0
-54 -56 59 0
-54 -61 64 0
-54 -71 74 0
-59 -52 54 0
-59 -62 64 0
-59 -72 74 0
-64 -53 54 0
-64 -58 59 0
-64 -73 74 0
-74 -55 54 0
-74 -60 59 0
-74 -65 64 0
-55 -56 60 0
-55 -61 65 0
-55 -66 70 0
-60 -52 55 0
-60 -62 65 0
-60 -67 70 0
-65 -53 55 0
-65 -58 60 0
-65 -68 70 0
-70 -54 55 0
-70 -59 60 0
-70 -64 65 0
-81 -87 86 0
-81 -92 91 0
-81 -97 96 0
-86 -83 81 0
-86 -93 91 0
-86 -98 96 0
-91 -84 81 0
-91 -89 86 0
-91 -99 96 0
-96 -85 81 0
-96 -90 86 0
-96 -95 91 0
-77 -86 87 0
-77 -91 92 0
-77 -96 97 0
-87 -78 77 0
-87 -93 92 0
-87 -98 97 0
-92 -79 77 0
-92 -89 87 0
-92 -99 97 0
-97 -80 77 0
-97 -90 87 0
-97 -95 92 0
-78 -81 83 0
-78 -91 93 0
-78 -96 98 0
-83 -77 78 0
-83 -92 93 0
-83 -97 98 0
-93 -79 78 0
-93 -84 83 0
-93 -99 98 0
-98 -80 78 0
-98 -85 83 0
-98 -95 93 0
-79 -81 84 0
-79 -86 89 0
-79 -96 99 0
-84 -77 79 0
-84 -87 89 0
-84 -97 99 0
-89 -78 79 0
-89 -83 84 0
-89 -98 99 0
-99 -80 79 0
-99 -85 84 0
-99 -90 89 0
-80 -81 85 0
-80 -86 90 0
-80 -91 95 0
-85 -77 80 0
-85 -87 90 0
-85 -92 95 0
-90 -78 80 0
-90 -83 85 0
-90 -93 95 0
-95 -79 80 0
-95 -84 85 0
-95 -89 90 0
-106 -112 111 0
-106 -117 116 0
-106 -122 121 0
-111 -108 106 0
-111 -118 116 0
-111 -123 121 0
-116 -109 106 0
-116 -114 111 0
-116 -124 121 0
-121 -110 106 0
-121 -115 111 0
-121 -120 116 0
-102 -111 112 0
-102 -116 117 0
-102 -121 122 0
-112 -103 102 0
-112 -118 117 0
-112 -123 122 0
-117 -104 102 0
-117 -114 112 0
-117 -124 122 0
-122 -105 102 0
-122 -115 112 0
-122 -120 117 0
-103 -106 108 0
-103 -116 118 0
-103 -121 123 0
-108 -102 103 0
-108 -117 118 0
-108 -122 123 0
-118 -104 103 0
-118 -109 108 0
-118 -124 123 0
-123 -105 103 0
-123 -110 108 0
-123 -120 118 0
-104 -106 109 0
-104 -111 114 0
-104 -121 124 0
-109 -102 104 0
-109 -112 114 0
-109 -122 124 0
-114 -103 104 0
-114 -108 109 0
-114 -123 124 0
-124 -105 104 0
-124 -110 109 0
-124 -115 114 0
-105 -106 110 0
-105 -111 115 0
-105 -116 120 0
-110 -102 105 0
-110 -112 115 0
-110 -117 120 0
-115 -103 105 0
-115 -108 110 0
-115 -118 120 0
-120 -104 105 0
-120 -109 110 0
-120 -114 115 0
6 2 0
-6 -2 0
11 3 0
-11 -3 0
16 4 0
-16 -4 0
21 5 0
-21 -5 0
2 6 0
-2 -6 0
12 8 0
-12 -8 0
17 9 0
-17 -9 0
22 10 0
-22 -10 0
3 11 0
-3 -11 0
8 12 0
-8 -12 0
18 14 0
-18 -14 0
23 15 0
-23 -15 0
4 16 0
-4 -16 0
9 17 0
-9 -17 0
14 18 0
-14 -18 0
24 20 0
-24 -20 0
5 21 0
-5 -21 0
10 22 0
-10 -22 0
15 23 0
-15 -23 0
20 24 0
-20 -24 0
31 27 0
-31 -27 0
36 28 0
-36 -28 0
41 29 0
-41 -29 0
46 30 0
-46 -30 0
27 31 0
-27 -31 0
37 33 0
-37 -33 0
42 34 0
-42 -34 0
47 35 0
-47 -35 0
28 36 0
-28 -36 0
33 37 0
-33 -37 0
43 39 0
-43 -39 0
48 40 0
-48 -40 0
29 41 0
-29 -41 0
34 42 0
-34 -42 0
39 43 0
-39 -43 0
49 45 0
-49 -45 0
30 46 0
-30 -46 0
35 47 0
-35 -47 0
40 48 0
-40 -48 0
45 49 0
-45 -49 0
56 52 0
-56 -52 0
61 53 0
-61 -53 0
66 54 0
-66 -54 0
71 55 0
-71 -55 0
52 56 0
-52 -56 0
62 58 0
-62 -58 0
67 59 0
-67 -59 0
72 60 0
-72 -60 0
53 61 0
-53 -61 0
58 62 0
-58 -62 0
68 64 0
-68 -64 0
73 65 0
-73 -65 0
54 66 0
-54 -66 0
59 67 0
-59 -67 0
64 68 0
-64 -68 0
74 70 0
-74 -70 0
55 71 0
-55 -71 0
60 72 0
-60 -72 0
65 73 0
-65 -73 0
70 74 0
-70 -74 0
81 77 0
-81 -77 0
86 78 0
-86 -78 0
91 79 0
-91 -79 0
96 80 0
-96 -80 0
77 81 0
-77 -81 0
87 83 0
-87 -83 0
92 84 0
-92 -84 0
97 85 0
-97 -85 0
78 86 0
-78 -86 0
83 87 0
-83 -87 0
93 89 0
-93 -89 0
98 90 0
-98 -90 0
79 91 0
-79 -91 0
84 92 0
-84 -92 0
89 93 0
-89 -93 0
99 95 0
-99 -95 0
80 96 0
-80 -96 0
85 97 0
-85 -97 0
90 98 0
-90 -98 0
95 99 0
-95 -99 0
106 102 0
-106 -102 0
111 103 0
-111 -103 0
116 104 0
-116 -104 0
121 105 0
-121 -105 0
102 106 0
-102 -106 0
112 108 0
-112 -108 0
117 109 0
-117 -109 0
122 110 0
-122 -110 0
103 111 0
-103 -111 0
108 112 0
-108 -112 0
118 114 0
-118 -114 0
123 115 0
-123 -115 0
104 116 0
-104 -116 0
109 117 0
-109 -117 0
114 118 0
-114 -118 0
124 120 0
-124 -120 0
105 121 0
-105 -121 0
110 122 0
-110 -122 0
115 123 0
-115 -123 0
120 124 0
-120 -124 0
-201 -208 0
-201 -215 0
-201 -222 0
-208 -215 0
-208 -222 0
-215 -222 0
-202 -209 0
-202 -216 0
-202 -223 0
-209 -216 0
-209 -223 0
-216 -223 0
-203 -210 0
-203 -217 0
-203 -224 0
-210 -217 0
-210 -224 0
-217 -224 0
-204 -211 0
-204 -218 0
-204 -225 0
-211 -218 0
-211 -225 0
-218 -225 0
-205 -212 0
-205 -219 0
-205 -226 0
-212 -219 0
-212 -226 0
-219 -226 0
-206 -213 0
-206 -220 0
-206 -227 0
-213 -220 0
-213 -227 0
-220 -227 0
-207 -214 0
-207 -221 0
-207 -228 0
-214 -221 0
-214 -228 0
-221 -228 0
201 208 215 222 0
202 209 216 223 0
203 210 217 224 0
204 211 218 225 0
205 212 219 226 0
206 213 220 227 0
207 214 221 228 0
-201 -6 -31 0
-201 6 31 0
-208 -31 -56 0
-208 31 56 0
-215 -56 -81 0
-215 56 81 0
-222 -81 -106 0
-222 81 106 0
-202 -11 -36 0
-202 11 36 0
-209 -36 -61 0
-209 36 61 0
-216 -61 -86 0
-216 61 86 0
-223 -86 -111 0
-223 86 111 0
-203 -16 -41 0
-203 16 41 0
-210 -41 -66 0
-210 41 66 0
-217 -66 -91 0
-217 66 91 0
-224 -91 -116 0
-224 91 116 0
-204 -21 -46 0
-204 21 46 0
-211 -46 -71 0
-211 46 71 0
-218 -71 -96 0
-218 71 96 0
-225 -96 -121 0
-225 96 121 0
-205 -18 -43 0
-205 18 43 0
-212 -43 -68 0
-212 43 68 0
-219 -68 -93 0
-219 68 93 0
-226 -93 -118 0
-226 93 118 0
-206 -23 -48 0
-206 23 48 0
-213 -48 -73 0
-213 48 73 0
-220 -73 -98 0
-220 73 98 0
-227 -98 -123 0
-227 98 123 0
-207 -24 -49 0
-207 24 49 0
-214 -49 -74 0
-214 49 74 0
-221 -74 -99 0
-221 74 99 0
-228 -99 -124 0
-228 99 124 0
-6 31 201 0
6 -31 201 0
-11 36 202 0
11 -36 202 0
-16 41 203 0
16 -41 203 0
-21 46 204 0
21 -46 204 0
-12 37 0
12 -37 0
-17 42 0
17 -42 0
-22 47 0
22 -47 0
-18 43 205 0
18 -43 205 0
-23 48 206 0
23 -48 206 0
-24 49 207 0
24 -49 207 0
-31 56 208 0
31 -56 208 0
-36 61 209 0
36 -61 209 0
-41 66 210 0
41 -66 210 0
-46 71 211 0
46 -71 211 0
-37 62 0
37 -62 0
-42 67 0
42 -67 0
-47 72 0
47 -72 0
-43 68 212 0
43 -68 212 0
-48 73 213 0
48 -73 213 0
-49 74 214 0
49 -74 214 0
-56 81 215 0
56 -81 215 0
-61 86 216 0
61 -86 216 0
-66 91 217 0
66 -91 217 0
-71 96 218 0
71 -96 218 0
-62 87 0
62 -87 0
-67 92 0
67 -92 0
-72 97 0
72 -97 0
-68 93 219 0
68 -93 219 0
-73 98 220 0
73 -98 220 0
-74 99 221 0
74 -99 221 0
-81 106 222 0
81 -106 222 0
-86 111 223 0
86 -111 223 0
-91 116 224 0
91 -116 224 0
-96 121 225 0
96 -121 225 0
-87 112 0
87 -112 0
-92 117 0
92 -117 0
-97 122 0
97 -122 0
-93 118 226 0
93 -118 226 0
-98 123 227 0
98 -123 227 0
-99 124 228 0
99 -124 228 0
-201 -202 0
-201 -203 0
-201 -204 0
-202 -201 0
-202 -203 0
-202 -204 0
-202 -205 0
-202 -206 0
-203 -201 0
-203 -202 0
-203 -204 0
-203 -205 0
-203 -207 0
-204 -201 0
-204 -202 0
-204 -203 0
-204 -206 0
-204 -207 0
-205 -202 0
-205 -203 0
-205 -206 0
-205 -207 0
-206 -202 0
-206 -204 0
-206 -205 0
-206 -207 0
-207 -203 0
-207 -204 0
-207 -205 0
-207 -206 0
-208 -209 0
-208 -210 0
-208 -211 0
-209 -208 0
-209 -210 0
-209 -211 0
-209 -212 0
-209 -213 0
-210 -208 0
-210 -209 0
-210 -211 0
-210 -212 0
-210 -214 0
-211 -208 0
-211 -209 0
-211 -210 0
-211 -213 0
-211 -214 0
-212 -209 0
-212 -210 0
-212 -213 0
-212 -214 0
-213 -209 0
-213 -211 0
-213 -212 0
-213 -214 0
-214 -210 0
-214 -211 0
-214 -212 0
-214 -213 0
-215 -216 0
-215 -217 0
-215 -218 0
-216 -215 0
-216 -217 0
-216 -218 0
-216 -219 0
-216 -220 0
-217 -215 0
-217 -216 0
-217 -218 0
-217 -219 0
-217 -221 0
-218 -215 0
-218 -216 0
-218 -217 0
-218 -220 0
-218 -221 0
-219 -216 0
-219 -217 0
-219 -220 0
-219 -221 0
-220 -216 0
-220 -218 0
-220 -219 0
-220 -221 0
-221 -217 0
-221 -218 0
-221 -219 0
-221 -220 0
-222 -223 0
-222 -224 0
-222 -225 0
-223 -222 0
-223 -224 0
-223 -225 0
-223 -226 0
-223 -227 0
-224 -222 0
-224 -223 0
-224 -225 0
-224 -226 0
-224 -228 0
-225 -222 0
-225 -223 0
-225 -224 0
-225 -227 0
-225 -228 0
-226 -223 0
-226 -224 0
-226 -227 0
-226 -228 0
-227 -223 0
-227 -225 0
-227 -226 0
-227 -228 0
-228 -224 0
-228 -225 0
-228 -226 0
-228 -227 0